\ENCODING=ISO-8859-1
\Problem name: IloCplex

Minimize
 obj: 131 x0 + 300 x1 + 245 x2 + 349 x3 + 77 x4 + 121 x5 + 307 x6 + 324 x7
      + 427 x8 + 327 x9 + 233 x10 + 443 x11 + 58 x12 + 220 x13 + 104 x15
      + 409 x16 + 545 x17 + 265 x18 + 182 x19 + 218 x20 + 21 x21 + 132 x23
      + 61 x28 + 193 x29 + 226 x30 + 155 x32 + 206 x33 + 267 x34 + 419 x35
      + 310 x36 + 187 x37 + 148 x38 + 130 x39 + 285 x40 + 91 x41 + 83 x43
      + 397 x44 + 151 x45 + 68 x46 + 341 x47 + 192 x48 + 199 x49 + 280 x50
      + 97 x51
Subject To
 c0:   x0  = 1
 c1:   x1 + x32  = 1
 c2:   x2  = 1
 c3:   x3 + x37  = 1
 c4:   x4  = 1
 c5:   x5 + x39  = 1
 c6:   x6 + x38  = 1
 c7:   x7 + x41 + x42  = 1
 c8:   x8 + x28  = 1
 c9:   x9 + x37  = 1
 c10:  x0  = 1
 c11:  x10 + x28 + x43  = 1
 c12:  x11 + x32  = 1
 c13:  x2  = 1
 c14:  x3 + x38 + x39  = 1
 c15:  x5 + x40  = 1
 c16:  x12 + x36 + x41  = 1
 c17:  x1 + x33 + x51  = 1
 c18:  x4  = 1
 c19:  x6  = 1
 c20:  x13 + x47  = 1
 c21:  x12  = 1
 c22:  x8 + x29  = 1
 c23:  x14  = 1
 c24:  x7 + x36 + x40 + x51  = 1
 c25:  x15  = 1
 c26:  x9 + x43  = 1
 c27:  x16 + x33  = 1
 c28:  x10 + x30  = 1
 c29:  x18 + x35 + x45  = 1
 c30:  x11 + x34 + x36 + x40  = 1
 c31:  x13 + x47  = 1
 c32:  x15  = 1
 c33:  x17 + x29 + x30  = 1
 c34:  x18 + x34 + x44 + x47  = 1
 c35:  x16 + x45  = 1
 c36:  x19 + x50  = 1
 c37:  x20 + x34 + x35  = 1
 c38:  x18 + x46 + x49  = 1
 c39:  x23 + x44 + x48  = 1
 c40:  x21 + x46  = 1
 c41:  x20  = 1
 c42:  x17 + x31  = 1
 c43:  x19  = 1
 c44:  x22  = 1
 c45:  x23 + x49  = 1
 c46:  x24 + x44 + x48 + x50  = 1
 c47:  x25  = 1
 c48:  x26  = 1
 c49:  x21 + x48  = 1
 c_nj: x0 + x1 + x2 + x3 + x4 + x5 + x6 + x7 + x8 + x9 + x10 + x11 + x12 + x13
       + x15 + x16 + x17 + x18 + x19 + x20 + x21 + x23 + x14 + x22 + x24 + x25
       + x26 + x28 + x29 + x30 + x31 + x32 + x33 + x34 + x35 + x36 + x37 + x38
       + x39 + x40 + x41 + x42 + x43 + x44 + x45 + x46 + x47 + x48 + x49 + x50
       + x51  = 27
Bounds
 0 <= x0 <= 1
 0 <= x1 <= 1
 0 <= x2 <= 1
 0 <= x3 <= 1
 0 <= x4 <= 1
 0 <= x5 <= 1
 0 <= x6 <= 1
 0 <= x7 <= 1
 0 <= x8 <= 1
 0 <= x9 <= 1
 0 <= x10 <= 1
 0 <= x11 <= 1
 0 <= x12 <= 1
 0 <= x13 <= 1
 0 <= x15 <= 1
 0 <= x16 <= 1
 0 <= x17 <= 1
 0 <= x18 <= 1
 0 <= x19 <= 1
 0 <= x20 <= 1
 0 <= x21 <= 1
 0 <= x23 <= 1
 0 <= x14 <= 1
 0 <= x22 <= 1
 0 <= x24 <= 1
 0 <= x25 <= 1
 0 <= x26 <= 1
 0 <= x28 <= 1
 0 <= x29 <= 1
 0 <= x30 <= 1
 0 <= x31 <= 1
 0 <= x32 <= 1
 0 <= x33 <= 1
 0 <= x34 <= 1
 0 <= x35 <= 1
 0 <= x36 <= 1
 0 <= x37 <= 1
 0 <= x38 <= 1
 0 <= x39 <= 1
 0 <= x40 <= 1
 0 <= x41 <= 1
 0 <= x42 <= 1
 0 <= x43 <= 1
 0 <= x44 <= 1
 0 <= x45 <= 1
 0 <= x46 <= 1
 0 <= x47 <= 1
 0 <= x48 <= 1
 0 <= x49 <= 1
 0 <= x50 <= 1
 0 <= x51 <= 1
End
